N = 5;
H = 6;
T = 2;

avail = array3d(1..N, 1..H, 1..T, [9, 8, 5, 6, 10, 6, 6, 9, 1, 0, 5, 4, 0, 7, 5, 3, 6, 10, 8, 9, 0, 3, 9, 1, 4, 0, 2, 6, 8, 10, 9, 1, 4, 2, 0, 3, 7, 9, 0, 5, 7, 3, 4, 8, 8, 5, 4, 7, 7, 7, 6, 3, 9, 2, 2, 2, 4, 2, 0, 2]);

r = array2d(1..H, 1..T, [1, 2, 2, 1, 2, 2, 1, 2, 1, 2, 0, 2]);
